data/instances/vrp_files/train_11.vrp
NAME : 11
COMMENT : Generated instance No. 11
TYPE : CVRP
DIMENSION : 21
EDGE_WEIGHT_TYPE : EUC_2D
CAPACITY : 30
NODE_COORD_SECTION
 1 838 205
 2 355 648
 3 479 584
 4 736 557
 5 586 564
 6 378 337
 7 899 607
 8 244 498
 9 330 933
 10 7 225
 11 365 487
 12 850 87
 13 805 55
 14 842 51
 15 18 696
 16 997 896
 17 575 917
 18 5 975
 19 490 722
 20 820 718
 21 535 476
DEMAND_SECTION
1 0
2 10
3 6
4 4
5 3
6 4
7 1
8 4
9 1
10 1
11 10
12 6
13 5
14 4
15 3
16 1
17 6
18 2
19 8
20 10
21 5
DEPOT_SECTION
 1
 -1
EOF